30 62 1 1
0 1 11
1 7 15
1 2 13
2 9 16
2 19 7
2 3 20
3 4 14
4 5 8
5 28 15
5 6 12
6 7 10
7 3 11
7 6 8
7 8 9
8 5 16
8 7 9
8 14 19
8 18 18
8 9 18
9 6 6
9 16 17
9 18 16
9 10 7
10 21 8
10 11 5
11 22 7
11 12 7
12 13 9
13 8 20
13 25 16
13 14 12
14 15 10
15 16 13
15 20 14
16 17 18
17 8 17
17 18 18
18 19 5
19 22 17
19 20 19
20 2 19
20 21 17
21 22 19
22 1 12
22 15 19
22 23 7
23 13 8
23 24 16
24 8 7
24 16 16
24 25 7
25 11 8
25 26 8
26 24 19
26 27 11
27 0 12
27 19 14
27 28 17
28 2 17
28 9 19
28 29 12
29 28 10
